%%% static parameters %%%
timespan = 1;
Clients_N = [1000];
Demand_W = [15];
Lt0 = [4];
Lt1 = [4];
SS_ = [0.85];
DS_D = [20];
K = [200];
MA = [500];
HC = [0.05];
%%% dynamic parameters %%%
lost_ratio_sales_ret_th = 0.0077840677421935935;
lost_ratio_sales_ret_w = 5;
lost_ratio_sales_dis_th = 0.007311929813572665;
lost_ratio_sales_dis_w = 32;
lost_ratio_sales_fac_th = 0.001982099936778461;
lost_ratio_sales_fac_w = 42;
stock_customer_MA_mean_relative_th = 0.6277746776069583;
stock_customer_MA_mean_relative_w = 35;
stock_distributor_MA_mean_relative_th = 0.8615030183363697;
stock_distributor_MA_mean_relative_w = 81;
stock_retailer_MA_mean_relative_th = 0.6562108617663236;
stock_retailer_MA_mean_relative_w = 32;
stock_factory_MA_mean_relative_th = 0.11801669599476994;
stock_factory_MA_mean_relative_w = 65;
